Route #1: 0 1 52 24 21 43 67 56 58 72 0
Route #2: 0 38 47 75 57 7 70 49 0
Route #3: 0 2 63 29 30 65 27 0
Route #4: 0 5 32 76 31 46 15 51 0
Route #5: 0 37 3 54 20 73 69 17 0
Route #6: 0 8 22 71 12 34 45 42 0
Route #7: 0 6 60 66 16 18 10 68 53 0
Route #8: 0 77 23 44 26 11 64 40 25 62 0
Route #9: 0 50 39 13 4 19 28 74 9 0
Route #10: 0 61 48 33 55 35 59 36 14 41 0
Cost 1397:
